data;


param d:= 100;
param r:=5;
param p:=0.500000;
param M:=1000;
param U:=
         1         1        5.904586e-01
         2         1        8.357500e-02
         3         1        6.081848e-01
         4         1       -4.790880e-01
         5         1        8.055648e-01
         6         1        3.311896e-01
         7         1        8.812955e-01
         8         1        3.771412e-01
         9         1       -1.519634e+00
        10         1        2.377977e-01
        11         1        7.504644e-01
        12         1       -9.615250e-01
        13         1        1.353809e+00
        14         1       -1.576313e+00
        15         1       -1.306167e+00
        16         1        6.378517e-01
        17         1        1.990198e-02
        18         1        6.147338e-01
        19         1       -5.492004e-01
        20         1       -2.059098e+00
        21         1        4.200003e-01
        22         1        3.595740e-02
        23         1       -1.111374e-01
        24         1        8.598212e-01
        25         1       -2.339768e+00
        26         1       -6.211428e-01
        27         1        9.372814e-01
        28         1        1.501200e+00
        29         1        1.033039e+00
        30         1        7.532571e-01
        31         1        1.614099e+00
        32         1       -3.601217e-01
        33         1       -9.432300e-01
        34         1       -3.401195e-01
        35         1        5.314717e-01
        36         1       -1.674427e+00
        37         1        5.638423e-01
        38         1       -5.777127e-01
        39         1        1.202548e-01
        40         1       -1.918029e-01
        41         1        1.315719e+00
        42         1       -5.935848e-01
        43         1       -2.434175e+00
        44         1        2.251287e-01
        45         1        8.049427e-01
        46         1       -1.151157e+00
        47         1        8.589652e-01
        48         1        6.485118e-01
        49         1        2.353788e+00
        50         1       -6.742646e-01
        51         1       -3.556507e-01
        52         1       -7.516135e-01
        53         1        5.704917e-01
        54         1       -1.800215e+00
        55         1       -8.428283e-01
        56         1       -1.525623e+00
        57         1        9.354701e-01
        58         1        1.431836e+00
        59         1        5.623596e-01
        60         1        2.883508e-01
        61         1        1.495070e+00
        62         1       -1.856558e-01
        63         1       -2.334408e-01
        64         1       -2.284592e+00
        65         1       -1.731427e+00
        66         1        7.853475e-01
        67         1       -7.477583e-01
        68         1        7.110022e-01
        69         1       -6.432472e-01
        70         1       -1.227763e+00
        71         1       -1.153926e+00
        72         1        9.282739e-01
        73         1       -1.226050e+00
        74         1        7.474009e-01
        75         1        1.143185e+00
        76         1       -7.975402e-01
        77         1        1.408363e+00
        78         1        1.007090e+00
        79         1        1.160733e+00
        80         1        1.297586e+00
        81         1        6.109002e-01
        82         1        2.619841e-01
        83         1       -2.830088e-01
        84         1        2.170268e+00
        85         1        8.243269e-01
        86         1        1.877711e+00
        87         1        3.468177e-02
        88         1        1.029891e+00
        89         1       -6.316475e-01
        90         1        6.986092e-01
        91         1       -3.756135e-01
        92         1        4.622932e-01
        93         1       -5.688197e-01
        94         1        6.536801e-01
        95         1        1.457991e+00
        96         1        2.823918e-02
        97         1       -4.725329e-01
        98         1       -1.906371e+00
        99         1       -1.145677e+00
       100         1       -8.763087e-01
         1         2        3.779653e-01
         2         2       -1.251967e-01
         3         2        1.378745e+00
         4         2       -3.781866e-01
         5         2        5.330436e-01
         6         2       -4.629938e-02
         7         2        2.553372e+00
         8         2       -9.507750e-01
         9         2       -7.198864e-01
        10         2       -1.021312e-01
        11         2       -7.311609e-01
        12         2       -1.470408e+00
        13         2        1.798949e-01
        14         2       -5.855243e-01
        15         2        2.369650e-01
        16         2        7.869842e-01
        17         2       -1.682241e+00
        18         2       -4.383401e-01
        19         2       -1.040723e+00
        20         2       -7.698570e-01
        21         2       -4.113963e-01
        22         2        2.237611e+00
        23         2       -2.054496e+00
        24         2        9.071656e-01
        25         2       -2.456813e-01
        26         2       -2.346323e+00
        27         2       -1.032483e+00
        28         2        4.219505e-01
        29         2        1.529608e+00
        30         2       -1.294818e+00
        31         2        1.375157e+00
        32         2        2.083434e-01
        33         2       -2.814768e-01
        34         2       -4.410940e-01
        35         2       -3.412054e-01
        36         2       -1.156031e-01
        37         2        9.797159e-01
        38         2       -2.347830e-01
        39         2        2.588560e+00
        40         2        1.389092e+00
        41         2       -3.319912e-01
        42         2        2.879913e-01
        43         2       -2.243314e+00
        44         2       -1.662144e-01
        45         2        9.374923e-01
        46         2        2.027662e-01
        47         2       -7.905256e-01
        48         2        1.712831e-01
        49         2       -1.323474e+00
        50         2       -2.607961e-03
        51         2       -4.067579e-01
        52         2       -6.284530e-01
        53         2        7.742359e-01
        54         2       -4.957244e-01
        55         2       -3.605571e-03
        56         2       -7.996021e-01
        57         2       -1.205148e+00
        58         2        7.597548e-02
        59         2        1.337193e+00
        60         2        8.154690e-01
        61         2        4.574249e-01
        62         2        1.028376e+00
        63         2        1.092613e+00
        64         2       -9.869564e-01
        65         2        3.669289e-02
        66         2       -8.742176e-01
        67         2        1.815260e+00
        68         2        3.018615e-01
        69         2        4.852379e-01
        70         2        1.484138e+00
        71         2       -1.295148e-01
        72         2       -3.783999e-01
        73         2        5.557711e-01
        74         2       -8.078541e-01
        75         2       -4.966610e-01
        76         2        4.557507e-01
        77         2       -2.036545e-01
        78         2        1.011072e-01
        79         2       -1.183638e+00
        80         2       -2.547827e-01
        81         2       -1.916019e-01
        82         2        6.792786e-01
        83         2        7.012547e-01
        84         2       -5.130049e-01
        85         2        6.600003e-01
        86         2       -2.801358e-01
        87         2        1.121681e+00
        88         2       -2.242734e+00
        89         2        1.766814e+00
        90         2       -1.297527e+00
        91         2       -1.518503e+00
        92         2       -5.524255e-01
        93         2       -4.124499e-01
        94         2        1.445704e+00
        95         2        8.041208e-01
        96         2        4.269544e-01
        97         2       -1.922707e+00
        98         2        6.037851e-01
        99         2       -1.701012e-01
       100         2       -4.099798e-01
         1         3       -9.247165e-01
         2         3       -1.997644e+00
         3         3       -6.631888e-01
         4         3        2.148832e+00
         5         3       -1.082126e-02
         6         3       -7.166304e-02
         7         3       -1.764037e+00
         8         3        1.274975e+00
         9         3       -1.500301e-01
        10         3       -2.445875e-02
        11         3       -1.428230e+00
        12         3       -4.276852e-01
        13         3        7.921143e-02
        14         3       -7.629889e-01
        15         3       -4.273146e-01
        16         3        8.553113e-01
        17         3       -9.764009e-01
        18         3        1.988310e-01
        19         3       -2.982505e-01
        20         3        1.151463e+00
        21         3       -1.042298e+00
        22         3       -2.215332e-01
        23         3        1.032323e+00
        24         3        5.235710e-01
        25         3        3.561434e-01
        26         3        7.786623e-01
        27         3       -2.002650e-01
        28         3        4.829490e-01
        29         3       -2.615269e-01
        30         3       -4.018788e-01
        31         3       -4.268813e-01
        32         3       -2.017633e-02
        33         3        9.318838e-01
        34         3        2.268985e+00
        35         3       -7.619009e-01
        36         3        1.310380e+00
        37         3       -5.649604e-01
        38         3        3.343889e-01
        39         3       -9.464853e-02
        40         3       -7.210785e-01
        41         3        5.601720e-01
        42         3       -7.025419e-01
        43         3        1.633373e+00
        44         3       -7.668778e-01
        45         3        5.938958e-01
        46         3       -4.632027e-01
        47         3        6.393168e-01
        48         3       -2.392096e-01
        49         3        3.206865e-01
        50         3        1.625427e+00
        51         3       -6.873803e-01
        52         3        1.246802e+00
        53         3       -1.873650e-01
        54         3        3.582888e-01
        55         3       -5.867162e-01
        56         3       -6.069406e-01
        57         3        7.664481e-01
        58         3        1.098987e+00
        59         3       -1.886522e+00
        60         3       -8.471516e-01
        61         3        8.893886e-01
        62         3       -7.302170e-01
        63         3        6.971277e-01
        64         3       -7.612441e-01
        65         3        2.138558e-01
        66         3        1.403810e+00
        67         3       -4.038485e-01
        68         3       -8.837037e-01
        69         3        7.569901e-01
        70         3        1.971576e+00
        71         3        7.031557e-01
        72         3        4.946637e-01
        73         3        2.143520e-01
        74         3       -1.991984e+00
        75         3       -6.413788e-01
        76         3       -2.677338e-01
        77         3       -5.130756e-01
        78         3        4.038145e-02
        79         3        1.120568e+00
        80         3        1.352628e+00
        81         3       -9.921978e-01
        82         3        3.141889e-01
        83         3       -3.344843e-01
        84         3       -2.059266e-02
        85         3        1.319391e+00
        86         3        1.330898e+00
        87         3        1.722752e-01
        88         3       -1.338055e+00
        89         3        4.402175e-01
        90         3       -1.256611e+00
        91         3        1.676103e+00
        92         3        3.199105e-01
        93         3       -1.028694e+00
        94         3       -2.889803e-01
        95         3       -9.755153e-02
        96         3        3.386534e-01
        97         3        6.062960e-01
        98         3        9.118589e-03
        99         3       -1.071252e+00
       100         3       -1.860303e+00
         1         4        4.201090e-01
         2         4       -2.481858e-01
         3         4        3.045082e-01
         4         4       -1.656038e+00
         5         4       -1.378918e-01
         6         4        2.588121e-01
         7         4        1.358453e+00
         8         4        8.560936e-01
         9         4       -1.050194e+00
        10         4        8.400721e-01
        11         4       -6.380616e-01
        12         4        1.287821e+00
        13         4        2.231292e+00
        14         4        6.423457e-01
        15         4        2.866927e+00
        16         4        8.643631e-01
        17         4       -8.922143e-01
        18         4        5.210914e-01
        19         4       -1.675310e-01
        20         4       -5.760075e-01
        21         4       -1.803475e-01
        22         4        1.069535e+00
        23         4       -8.504254e-01
        24         4        7.952256e-02
        25         4       -1.171550e+00
        26         4       -5.070130e-01
        27         4        3.169151e-01
        28         4       -1.153612e+00
        29         4       -1.707181e+00
        30         4       -3.580100e-01
        31         4        6.511972e-01
        32         4        1.443622e-01
        33         4       -1.204634e+00
        34         4       -3.871737e-01
        35         4       -1.706464e+00
        36         4       -4.395199e-01
        37         4       -1.265524e+00
        38         4       -7.307411e-01
        39         4       -1.289476e+00
        40         4        1.524136e+00
        41         4       -1.105043e+00
        42         4       -1.147747e+00
        43         4       -1.002521e+00
        44         4       -7.888381e-02
        45         4        2.403639e+00
        46         4       -1.435695e+00
        47         4        2.148183e-01
        48         4        1.539021e+00
        49         4       -1.506534e-01
        50         4        2.756471e-01
        51         4       -7.291417e-01
        52         4        1.876373e+00
        53         4        1.701108e+00
        54         4       -1.589945e+00
        55         4       -7.334039e-01
        56         4        1.831643e-01
        57         4       -1.324050e+00
        58         4        1.087512e-01
        59         4       -3.717368e-01
        60         4        1.318275e+00
        61         4        2.281790e-01
        62         4        1.608156e+00
        63         4        1.809272e+00
        64         4        4.651789e-01
        65         4       -7.982350e-01
        66         4        1.061879e+00
        67         4       -1.517267e+00
        68         4        1.292506e-01
        69         4       -9.035109e-02
        70         4        3.328046e-01
        71         4       -7.802510e-01
        72         4        5.598175e-01
        73         4       -2.901482e-01
        74         4        4.875148e-01
        75         4        4.908442e-01
        76         4       -1.106141e-01
        77         4       -1.061019e+00
        78         4        6.525940e-01
        79         4        2.770854e-01
        80         4        4.973762e-01
        81         4        9.114080e-01
        82         4       -3.102103e-01
        83         4        1.314332e+00
        84         4       -1.326614e+00
        85         4       -1.513655e+00
        86         4       -4.031267e-01
        87         4        6.261982e-01
        88         4       -4.873469e-01
        89         4        1.341864e+00
        90         4        5.765840e-01
        91         4       -1.193032e+00
        92         4        1.890736e+00
        93         4        3.584202e-01
        94         4        7.436159e-01
        95         4        4.275817e-01
        96         4       -3.391803e-01
        97         4       -2.018147e+00
        98         4        1.769445e-01
        99         4       -1.321900e+00
       100         4        8.979660e-01
         1         5        1.598625e-01
         2         5       -3.952613e-01
         3         5        1.157460e+00
         4         5        2.359975e+00
         5         5       -4.543707e-02
         6         5       -1.239922e+00
         7         5       -1.774798e+00
         8         5        2.900093e-01
         9         5       -6.054380e-01
        10         5       -7.584982e-01
        11         5        9.157106e-01
        12         5        1.676101e+00
        13         5        3.381145e-01
        14         5       -8.588328e-01
        15         5        8.558570e-01
        16         5        3.084176e-01
        17         5        3.497372e-02
        18         5       -3.731973e-02
        19         5       -4.343616e-01
        20         5        1.228909e+00
        21         5       -1.125100e-02
        22         5        8.241836e-02
        23         5       -1.746306e-01
        24         5       -1.105897e+00
        25         5       -6.931410e-01
        26         5        1.698171e+00
        27         5       -4.800963e-01
        28         5       -9.963068e-01
        29         5       -1.140390e-01
        30         5        5.183581e-01
        31         5        1.199429e+00
        32         5       -8.988206e-01
        33         5       -5.154520e-01
        34         5        8.791211e-01
        35         5        1.991784e+00
        36         5        1.437332e+00
        37         5       -7.511770e-01
        38         5       -6.254725e-01
        39         5       -4.547597e-01
        40         5        1.051396e+00
        41         5        3.492392e-01
        42         5       -1.584651e+00
        43         5        5.827688e-01
        44         5        1.587713e+00
        45         5        8.544695e-01
        46         5        1.268328e-01
        47         5       -3.535616e-01
        48         5        3.190211e-01
        49         5        2.196066e+00
        50         5        2.245770e+00
        51         5       -9.976733e-01
        52         5       -1.091746e+00
        53         5       -8.945032e-01
        54         5        1.322743e+00
        55         5        8.694681e-01
        56         5        6.918322e-02
        57         5        6.824264e-01
        58         5        9.416474e-02
        59         5        1.839218e+00
        60         5       -1.170498e+00
        61         5        6.760274e-01
        62         5       -4.774884e-01
        63         5       -8.035506e-02
        64         5        1.354394e-01
        65         5       -6.957944e-01
        66         5       -7.837287e-01
        67         5        4.718680e-01
        68         5        6.200141e-01
        69         5        2.624268e-01
        70         5        1.090598e+00
        71         5        1.603430e+00
        72         5       -1.721317e-01
        73         5        1.985758e+00
        74         5        1.056940e+00
        75         5        3.338839e-01
        76         5        1.250277e+00
        77         5        3.343879e-01
        78         5       -7.647014e-01
        79         5       -1.069489e+00
        80         5        3.797900e-01
        81         5        7.299132e-01
        82         5        2.079430e-01
        83         5        1.170326e+00
        84         5        1.612805e+00
        85         5        5.445603e-02
        86         5       -5.126572e-01
        87         5        9.983724e-01
        88         5        3.055257e-01
        89         5       -1.543189e+00
        90         5        6.003753e-01
        91         5       -1.884620e+00
        92         5        6.539899e-01
        93         5        2.677528e-01
        94         5       -1.085921e+00
        95         5       -3.486869e-01
        96         5        1.785492e+00
        97         5        8.924321e-01
        98         5       -9.493397e-01
        99         5       -1.502051e+00
       100         5       -5.717457e-01
;

param theta:=
    1        4.444585e-01
    2       -1.005550e-01
    3       -3.612623e-01
    4        8.766572e-01
    5        9.432266e-01
;
param X_true:=
    1        1.075944e+00
    2        1.804521e-01
    3        1.727917e+00
    4       -1.771555e-01
    5        1.447823e-01
    6       -7.652844e-01
    7        2.893352e-01
    8        8.253917e-01
    9       -2.040106e+00
   10        1.443719e-01
   11        1.226178e+00
   12        2.587007e+00
   13        2.829691e+00
   14       -6.137808e-01
   15        2.870936e+00
   16        9.428663e-01
   17       -2.179232e-01
   18        6.668403e-01
   19       -5.886751e-01
   20       -5.987463e-01
   21        4.359910e-01
   22        8.871929e-01
   23       -1.124498e+00
   24       -8.710279e-01
   25       -2.823633e+00
   26        8.388716e-01
   27        4.186615e-01
   28       -1.502452e+00
   29       -1.206337e+00
   30        7.863427e-01
   31        2.435346e+00
   32       -8.957424e-01
   33       -2.269346e+00
   34       -4.374978e-01
   35        9.295922e-01
   36       -2.347062e-01
   37       -1.464019e+00
   38       -1.583736e+00
   39       -1.732192e+00
   40        2.363874e+00
   41       -2.248684e-01
   42       -2.536874e+00
   43       -1.775932e+00
   44        1.821144e+00
   45        2.962211e+00
   46       -1.502470e+00
   47        8.465447e-02
   48        2.007921e+00
   49        3.001207e+00
   50        1.472874e+00
   51       -1.448935e+00
   52       -1.055214e-01
   53        8.911299e-01
   54       -1.028098e+00
   55        1.469933e-02
   56       -1.523244e-01
   57       -2.569436e-01
   58        4.149931e-01
   59        2.205399e+00
   60        4.019660e-01
   61        1.135887e+00
   62        1.037424e+00
   63        1.044357e+00
   64       -1.054559e-01
   65       -2.206091e+00
   66        1.212911e-01
   67       -1.251628e+00
   68        1.303992e+00
   69       -4.418495e-01
   70       -8.792704e-02
   71        7.372818e-02
   72        6.007997e-01
   73        9.394253e-01
   74        2.555755e+00
   75        1.535550e+00
   76        7.809605e-01
   77        2.177845e-01
   78        2.729824e-01
   79       -5.351533e-01
   80        9.092467e-01
   81        2.136943e+00
   82       -1.424543e-01
   83        2.181101e+00
   84        1.380935e+00
   85       -1.450579e+00
   86       -4.546213e-01
   87        1.330530e+00
   88        1.026573e+00
   89       -8.961750e-01
   90        1.969425e+00
   91       -3.443122e+00
   92        2.419427e+00
   93        7.271748e-01
   94       -1.218878e-01
   95        6.480170e-01
   96        1.234394e+00
   97       -1.160506e+00
   98       -1.649980e+00
   99       -2.680077e+00
  100        5.704940e-01
;
param X:=
    1        1.075944e+00
    2       -1.289812e+00
    3        1.727917e+00
    4        1.989931e-01
    5        1.447823e-01
    6       -7.652844e-01
    7        2.893352e-01
    8        8.253917e-01
    9       -2.040106e+00
   10        1.443719e-01
   11        1.226178e+00
   12        2.379040e-02
   13        2.829691e+00
   14       -6.137808e-01
   15       -1.623756e-01
   16        9.428663e-01
   17       -1.114145e+00
   18       -4.678273e-01
   19       -1.258364e-01
   20       -5.831930e-01
   21       -1.078122e-01
   22        8.871929e-01
   23       -3.171121e-01
   24       -4.745532e-01
   25       -8.063003e-01
   26       -9.916020e-01
   27        9.522579e-01
   28        5.486509e-01
   29       -9.312799e-01
   30        7.677425e-02
   31        2.435346e+00
   32       -8.957424e-01
   33        4.583232e-02
   34        1.762504e-01
   35        9.295922e-01
   36       -2.347062e-01
   37       -1.464019e+00
   38        1.640330e-01
   39       -1.732192e+00
   40        2.363874e+00
   41       -4.014879e-01
   42       -2.462894e-01
   43        4.541825e-01
   44       -3.635178e-01
   45        2.962211e+00
   46       -1.776272e+00
   47       -6.711345e-01
   48       -1.353631e+00
   49        1.275725e-01
   50        1.472874e+00
   51       -1.448935e+00
   52        2.171226e+00
   53        8.911299e-01
   54        3.587306e-01
   55        1.469933e-02
   56       -1.523244e-01
   57       -4.781175e-01
   58        4.149931e-01
   59        2.205399e+00
   60        8.595282e-01
   61        1.135887e+00
   62        1.037424e+00
   63        1.044357e+00
   64       -1.054559e-01
   65        1.136614e+00
   66        1.212911e-01
   67        2.255654e-01
   68       -1.807468e+00
   69       -4.418495e-01
   70       -8.792704e-02
   71        9.445992e-02
   72       -3.260778e-01
   73       -1.116734e+00
   74        2.555755e+00
   75        3.543556e-01
   76        7.809605e-01
   77       -8.081848e-01
   78       -5.839318e-01
   79       -5.351533e-01
   80        5.110946e-01
   81        2.136943e+00
   82        3.310699e-01
   83        2.181101e+00
   84        6.582897e-02
   85        3.866265e-02
   86       -4.546213e-01
   87        1.005622e+00
   88        1.026573e+00
   89        4.034820e-01
   90        9.767842e-01
   91       -3.443122e+00
   92        2.419427e+00
   93        7.271748e-01
   94       -1.335591e-01
   95        6.480170e-01
   96        7.161532e-01
   97       -1.160506e+00
   98       -1.649980e+00
   99       -2.680077e+00
  100        5.704940e-01
;
param outliervec:=
    1    0
    2    1
    3    0
    4    1
    5    0
    6    0
    7    0
    8    0
    9    0
   10    0
   11    0
   12    1
   13    0
   14    0
   15    1
   16    0
   17    1
   18    1
   19    1
   20    1
   21    1
   22    0
   23    1
   24    1
   25    1
   26    1
   27    1
   28    1
   29    1
   30    1
   31    0
   32    0
   33    1
   34    1
   35    0
   36    0
   37    0
   38    1
   39    0
   40    0
   41    1
   42    1
   43    1
   44    1
   45    0
   46    1
   47    1
   48    1
   49    1
   50    0
   51    0
   52    1
   53    0
   54    1
   55    0
   56    0
   57    1
   58    0
   59    0
   60    1
   61    0
   62    0
   63    0
   64    0
   65    1
   66    0
   67    1
   68    1
   69    0
   70    0
   71    1
   72    1
   73    1
   74    0
   75    1
   76    0
   77    1
   78    1
   79    0
   80    1
   81    0
   82    1
   83    0
   84    1
   85    1
   86    0
   87    1
   88    0
   89    1
   90    1
   91    0
   92    0
   93    0
   94    1
   95    0
   96    1
   97    0
   98    0
   99    0
  100    0
;